GPU_version/outputs/rc202.out
Total number of lines in the file: 110
Total number of nodes including depot: 101
Customer 1: (40, 50), Demand: 0, Time Window: [0, 960], Service Time: 0
Customer 2: (25, 85), Demand: 20, Time Window: [0, 911], Service Time: 10
Customer 3: (22, 75), Demand: 30, Time Window: [0, 919], Service Time: 10
Customer 4: (22, 85), Demand: 10, Time Window: [0, 910], Service Time: 10
Customer 5: (20, 80), Demand: 40, Time Window: [644, 764], Service Time: 10
calling MST kernel
Post Processing Route
Post 2 opt Processing Route
2-opt between 6 and 13 improved cost from 2035.17 to 2034.52
2-opt between 9 and 11 improved cost from 2141.96 to 2109.96
2-opt between 10 and 11 improved cost from 2109.96 to 2105.96
Elapsed time: 0.656967 seconds
Final Route: 
Route #1: 80 91 
Route #2: 92 95 62 50 34 31 29 27 26 
Route #3: 28 30 32 
Route #4: 33 67 56 
Route #5: 64 84 85 51 
Route #6: 63 76 89 94 93 
Route #7: 71 96 54 72 
Route #8: 41 
Route #9: 39 42 44 43 
Route #10: 40 38 37 
Route #11: 36 35 
Route #12: 81 61 68 
Route #13: 90 
Route #14: 69 98 88 60 
Route #15: 78 73 79 7 6 2 8 46 4 
Route #16: 45 5 3 1 12 11 10 
Route #17: 9 13 
Route #18: 14 47 15 16 17 
Route #19: 55 100 70 
Route #20: 53 
Route #21: 65 82 99 52 57 86 74 
Route #22: 87 59 97 58 75 77 25 
Route #23: 23 21 48 18 19 49 20 
Route #24: 22 24 
Route #25: 66 83 
Route #26: Total Distance: 2035.17
Final route is valid
