outputs/rc202.txt.out
filename: RC202
Vehicles: 25, Capacity: 1000
Total customers : 101
No of routes: 23
Route #1: 90
Route #2: 65 82 99 52 57 86 74 58 75 77 25
Route #3: 23 21 48 18 19 49 20
Route #4: 22 24
Route #5: 87 97 59 83 66
Route #6: 69 98 53
Route #7: 88 55 100 70
Route #8: 60
Route #9: 78 73 79 7 6 2 8 46 4
Route #10: 1 3 5 45 12 11 10
Route #11: 9 13
Route #12: 14 47 15 16 17 91 80
Route #13: 92 95 62 50 34 31 67
Route #14: 29 27 26 28 30 32
Route #15: 33 56
Route #16: 64 51 85 84
Route #17: 63 76 89 93 94
Route #18: 96 71 72 54
Route #19: 41
Route #20: 39 40 37 38
Route #21: 36 35
Route #22: 42 44 43
Route #23: 81 61 68
Cost 1961
